p wcnf 331 1124
w -2 0.367879 0
w 2 2.718282 0
w -3 0.367879 0
w 3 2.718282 0
w -4 0.367879 0
w 4 2.718282 0
w -5 0.367879 0
w 5 2.718282 0
w -6 0.367879 0
w 6 2.718282 0
w -7 0.367879 0
w 7 2.718282 0
w -8 0.367879 0
w 8 2.718282 0
w -9 0.367879 0
w 9 2.718282 0
w -10 0.367879 0
w 10 2.718282 0
w -11 0.367879 0
w 11 2.718282 0
w -12 0.367879 0
w 12 2.718282 0
w -13 0.367879 0
w 13 2.718282 0
w -14 0.367879 0
w 14 2.718282 0
w -16 0.367879 0
w 16 2.718282 0
w -17 0.367879 0
w 17 2.718282 0
w -18 0.367879 0
w 18 2.718282 0
w -19 0.367879 0
w 19 2.718282 0
w -20 0.367879 0
w 20 2.718282 0
w -21 0.367879 0
w 21 2.718282 0
w -22 0.367879 0
w 22 2.718282 0
w -23 0.367879 0
w 23 2.718282 0
w -25 0.367879 0
w 25 2.718282 0
w -26 0.367879 0
w 26 2.718282 0
w -27 0.367879 0
w 27 2.718282 0
w -28 0.367879 0
w 28 2.718282 0
w -29 0.367879 0
w 29 2.718282 0
w -30 0.367879 0
w 30 2.718282 0
w -31 0.367879 0
w 31 2.718282 0
w -32 0.367879 0
w 32 2.718282 0
w -33 0.367879 0
w 33 2.718282 0
w -34 0.367879 0
w 34 2.718282 0
w -35 0.367879 0
w 35 2.718282 0
w -36 0.367879 0
w 36 2.718282 0
w -37 0.367879 0
w 37 2.718282 0
w -39 0.367879 0
w 39 2.718282 0
w -40 0.367879 0
w 40 2.718282 0
w -41 0.367879 0
w 41 2.718282 0
w -42 0.367879 0
w 42 2.718282 0
w -43 0.367879 0
w 43 2.718282 0
w -44 0.367879 0
w 44 2.718282 0
w -45 0.367879 0
w 45 2.718282 0
w -46 0.367879 0
w 46 2.718282 0
w -47 0.367879 0
w 47 2.718282 0
w -48 0.367879 0
w 48 2.718282 0
w -49 0.367879 0
w 49 2.718282 0
w -50 0.367879 0
w 50 2.718282 0
w -51 0.367879 0
w 51 2.718282 0
w -53 0.367879 0
w 53 2.718282 0
w -54 0.367879 0
w 54 2.718282 0
w -55 0.367879 0
w 55 2.718282 0
w -56 0.367879 0
w 56 2.718282 0
w -57 0.367879 0
w 57 2.718282 0
w -58 0.367879 0
w 58 2.718282 0
w -59 0.367879 0
w 59 2.718282 0
w -60 0.367879 0
w 60 2.718282 0
w -61 0.367879 0
w 61 2.718282 0
w -62 0.367879 0
w 62 2.718282 0
w -63 0.367879 0
w 63 2.718282 0
w -65 0.367879 0
w 65 2.718282 0
w -66 0.367879 0
w 66 2.718282 0
w -67 0.367879 0
w 67 2.718282 0
w -68 0.367879 0
w 68 2.718282 0
w -69 0.367879 0
w 69 2.718282 0
w -70 0.367879 0
w 70 2.718282 0
w -71 0.367879 0
w 71 2.718282 0
w -72 0.367879 0
w 72 2.718282 0
w -73 0.367879 0
w 73 2.718282 0
w -75 0.367879 0
w 75 2.718282 0
w -76 0.367879 0
w 76 2.718282 0
w -77 0.367879 0
w 77 2.718282 0
w -78 0.367879 0
w 78 2.718282 0
w -80 0.367879 0
w 80 2.718282 0
w -81 0.367879 0
w 81 2.718282 0
w -82 0.367879 0
w 82 2.718282 0
w -83 0.367879 0
w 83 2.718282 0
w -84 0.367879 0
w 84 2.718282 0
w -85 0.367879 0
w 85 2.718282 0
w -86 0.367879 0
w 86 2.718282 0
w -87 0.367879 0
w 87 2.718282 0
w -88 0.367879 0
w 88 2.718282 0
w -89 0.367879 0
w 89 2.718282 0
w -90 0.367879 0
w 90 2.718282 0
w -91 0.367879 0
w 91 2.718282 0
w -92 0.367879 0
w 92 2.718282 0
w -94 0.367879 0
w 94 2.718282 0
w -95 0.367879 0
w 95 2.718282 0
w -96 0.367879 0
w 96 2.718282 0
w -97 0.367879 0
w 97 2.718282 0
w -98 0.367879 0
w 98 2.718282 0
w -99 0.367879 0
w 99 2.718282 0
w -100 0.367879 0
w 100 2.718282 0
w -101 0.367879 0
w 101 2.718282 0
w -102 0.367879 0
w 102 2.718282 0
w -103 0.367879 0
w 103 2.718282 0
w -104 0.367879 0
w 104 2.718282 0
w -105 0.367879 0
w 105 2.718282 0
w -106 0.367879 0
w 106 2.718282 0
w -107 0.367879 0
w 107 2.718282 0
w -108 0.367879 0
w 108 2.718282 0
w -110 0.367879 0
w 110 2.718282 0
w -111 0.367879 0
w 111 2.718282 0
w -112 0.367879 0
w 112 2.718282 0
w -113 0.367879 0
w 113 2.718282 0
w -114 0.367879 0
w 114 2.718282 0
w -115 0.367879 0
w 115 2.718282 0
w -116 0.367879 0
w 116 2.718282 0
w -117 0.367879 0
w 117 2.718282 0
w -118 0.367879 0
w 118 2.718282 0
w -119 0.367879 0
w 119 2.718282 0
w -120 0.367879 0
w 120 2.718282 0
w -122 0.367879 0
w 122 2.718282 0
w -123 0.367879 0
w 123 2.718282 0
w -124 0.367879 0
w 124 2.718282 0
w -125 0.367879 0
w 125 2.718282 0
w -126 0.367879 0
w 126 2.718282 0
w -127 0.367879 0
w 127 2.718282 0
w -128 0.367879 0
w 128 2.718282 0
w -130 0.367879 0
w 130 2.718282 0
w -131 0.367879 0
w 131 2.718282 0
w -132 0.367879 0
w 132 2.718282 0
w -133 0.367879 0
w 133 2.718282 0
w -134 0.367879 0
w 134 2.718282 0
w -135 0.367879 0
w 135 2.718282 0
w -136 0.367879 0
w 136 2.718282 0
w -137 0.367879 0
w 137 2.718282 0
w -138 0.367879 0
w 138 2.718282 0
w -139 0.367879 0
w 139 2.718282 0
w -141 0.367879 0
w 141 2.718282 0
w -142 0.367879 0
w 142 2.718282 0
w -143 0.367879 0
w 143 2.718282 0
w -144 0.367879 0
w 144 2.718282 0
w -145 0.367879 0
w 145 2.718282 0
w -146 0.367879 0
w 146 2.718282 0
w -147 0.367879 0
w 147 2.718282 0
w -149 0.367879 0
w 149 2.718282 0
w -150 0.367879 0
w 150 2.718282 0
w -151 0.367879 0
w 151 2.718282 0
w -152 0.367879 0
w 152 2.718282 0
w -154 0.367879 0
w 154 2.718282 0
w -155 0.367879 0
w 155 2.718282 0
w -156 0.367879 0
w 156 2.718282 0
w -157 0.367879 0
w 157 2.718282 0
w -158 0.367879 0
w 158 2.718282 0
w -159 0.367879 0
w 159 2.718282 0
w -160 0.367879 0
w 160 2.718282 0
w -161 0.367879 0
w 161 2.718282 0
w -162 0.367879 0
w 162 2.718282 0
w -163 0.367879 0
w 163 2.718282 0
w -164 0.367879 0
w 164 2.718282 0
w -166 0.367879 0
w 166 2.718282 0
w -167 0.367879 0
w 167 2.718282 0
w -168 0.367879 0
w 168 2.718282 0
w -169 0.367879 0
w 169 2.718282 0
w -170 0.367879 0
w 170 2.718282 0
w -171 0.367879 0
w 171 2.718282 0
w -173 0.367879 0
w 173 2.718282 0
w -174 0.367879 0
w 174 2.718282 0
w -175 0.367879 0
w 175 2.718282 0
w -176 0.367879 0
w 176 2.718282 0
w -177 0.367879 0
w 177 2.718282 0
w -178 0.367879 0
w 178 2.718282 0
w -179 0.367879 0
w 179 2.718282 0
w -181 0.367879 0
w 181 2.718282 0
w -182 0.367879 0
w 182 2.718282 0
w -183 0.367879 0
w 183 2.718282 0
w -184 0.367879 0
w 184 2.718282 0
w -185 0.367879 0
w 185 2.718282 0
w -186 0.367879 0
w 186 2.718282 0
w -187 0.367879 0
w 187 2.718282 0
w -188 0.367879 0
w 188 2.718282 0
w -189 0.367879 0
w 189 2.718282 0
w -191 0.367879 0
w 191 2.718282 0
w -192 0.367879 0
w 192 2.718282 0
w -193 0.367879 0
w 193 2.718282 0
w -194 0.367879 0
w 194 2.718282 0
w -195 0.367879 0
w 195 2.718282 0
w -196 0.367879 0
w 196 2.718282 0
w -197 0.367879 0
w 197 2.718282 0
w -198 0.367879 0
w 198 2.718282 0
w -199 0.367879 0
w 199 2.718282 0
w -200 0.367879 0
w 200 2.718282 0
w -202 0.367879 0
w 202 2.718282 0
w -203 0.367879 0
w 203 2.718282 0
w -204 0.367879 0
w 204 2.718282 0
w -205 0.367879 0
w 205 2.718282 0
w -206 0.367879 0
w 206 2.718282 0
w -207 0.367879 0
w 207 2.718282 0
w -208 0.367879 0
w 208 2.718282 0
w -209 0.367879 0
w 209 2.718282 0
w -211 0.367879 0
w 211 2.718282 0
w -212 0.367879 0
w 212 2.718282 0
w -213 0.367879 0
w 213 2.718282 0
w -214 0.367879 0
w 214 2.718282 0
w -215 0.367879 0
w 215 2.718282 0
w -216 0.367879 0
w 216 2.718282 0
w -218 0.367879 0
w 218 2.718282 0
w -219 0.367879 0
w 219 2.718282 0
w -220 0.367879 0
w 220 2.718282 0
w -221 0.367879 0
w 221 2.718282 0
w -223 0.367879 0
w 223 2.718282 0
w -224 0.367879 0
w 224 2.718282 0
w -225 0.367879 0
w 225 2.718282 0
w -226 0.367879 0
w 226 2.718282 0
w -227 0.367879 0
w 227 2.718282 0
w -228 0.367879 0
w 228 2.718282 0
w -230 0.367879 0
w 230 2.718282 0
w -231 0.367879 0
w 231 2.718282 0
w -232 0.367879 0
w 232 2.718282 0
w -233 0.367879 0
w 233 2.718282 0
w -235 0.367879 0
w 235 2.718282 0
w -236 0.367879 0
w 236 2.718282 0
w -237 0.367879 0
w 237 2.718282 0
w -238 0.367879 0
w 238 2.718282 0
w -239 0.367879 0
w 239 2.718282 0
w -240 0.367879 0
w 240 2.718282 0
w -242 0.367879 0
w 242 2.718282 0
w -243 0.367879 0
w 243 2.718282 0
w -244 0.367879 0
w 244 2.718282 0
w -245 0.367879 0
w 245 2.718282 0
w -247 0.367879 0
w 247 2.718282 0
w -248 0.367879 0
w 248 2.718282 0
w -249 0.367879 0
w 249 2.718282 0
w -250 0.367879 0
w 250 2.718282 0
w -251 0.367879 0
w 251 2.718282 0
w -252 0.367879 0
w 252 2.718282 0
w -253 0.367879 0
w 253 2.718282 0
w -255 0.367879 0
w 255 2.718282 0
w -256 0.367879 0
w 256 2.718282 0
w -257 0.367879 0
w 257 2.718282 0
w -259 0.367879 0
w 259 2.718282 0
w -260 0.367879 0
w 260 2.718282 0
w -261 0.367879 0
w 261 2.718282 0
w -263 0.367879 0
w 263 2.718282 0
w -264 0.367879 0
w 264 2.718282 0
w -266 0.367879 0
w 266 2.718282 0
w -267 0.367879 0
w 267 2.718282 0
w -268 0.367879 0
w 268 2.718282 0
w -269 0.367879 0
w 269 2.718282 0
w -270 0.367879 0
w 270 2.718282 0
w -271 0.367879 0
w 271 2.718282 0
w -273 0.367879 0
w 273 2.718282 0
w -274 0.367879 0
w 274 2.718282 0
w -275 0.367879 0
w 275 2.718282 0
w -276 0.367879 0
w 276 2.718282 0
w -277 0.367879 0
w 277 2.718282 0
w -278 0.367879 0
w 278 2.718282 0
w -279 0.367879 0
w 279 2.718282 0
w -280 0.367879 0
w 280 2.718282 0
w -281 0.367879 0
w 281 2.718282 0
w -282 0.367879 0
w 282 2.718282 0
w -284 0.367879 0
w 284 2.718282 0
w -285 0.367879 0
w 285 2.718282 0
w -286 0.367879 0
w 286 2.718282 0
w -287 0.367879 0
w 287 2.718282 0
w -289 0.367879 0
w 289 2.718282 0
w -290 0.367879 0
w 290 2.718282 0
w -292 0.367879 0
w 292 2.718282 0
w -293 0.367879 0
w 293 2.718282 0
w -294 0.367879 0
w 294 2.718282 0
w -295 0.367879 0
w 295 2.718282 0
w -297 0.367879 0
w 297 2.718282 0
w -299 0.367879 0
w 299 2.718282 0
w -300 0.367879 0
w 300 2.718282 0
w -302 0.367879 0
w 302 2.718282 0
w -303 0.367879 0
w 303 2.718282 0
w -305 0.367879 0
w 305 2.718282 0
w -306 0.367879 0
w 306 2.718282 0
w -308 0.367879 0
w 308 2.718282 0
w -309 0.367879 0
w 309 2.718282 0
w -311 0.367879 0
w 311 2.718282 0
w -312 0.367879 0
w 312 2.718282 0
w -314 0.367879 0
w 314 2.718282 0
w -316 0.367879 0
w 316 2.718282 0
w -317 0.367879 0
w 317 2.718282 0
w -319 0.367879 0
w 319 2.718282 0
w -321 0.367879 0
w 321 2.718282 0
w -322 0.367879 0
w 322 2.718282 0
w -324 0.367879 0
w 324 2.718282 0
w -325 0.367879 0
w 325 2.718282 0
w -327 0.367879 0
w 327 2.718282 0
w -329 0.367879 0
w 329 2.718282 0
2 1 15 0
2 -1 -15 0
-2 1 -15 0
-2 -1 15 0
3 1 38 0
3 -1 -38 0
-3 1 -38 0
-3 -1 38 0
4 1 79 0
4 -1 -79 0
-4 1 -79 0
-4 -1 79 0
5 1 121 0
5 -1 -121 0
-5 1 -121 0
-5 -1 121 0
6 1 172 0
6 -1 -172 0
-6 1 -172 0
-6 -1 172 0
7 1 201 0
7 -1 -201 0
-7 1 -201 0
-7 -1 201 0
8 1 210 0
8 -1 -210 0
-8 1 -210 0
-8 -1 210 0
9 1 229 0
9 -1 -229 0
-9 1 -229 0
-9 -1 229 0
10 1 272 0
10 -1 -272 0
-10 1 -272 0
-10 -1 272 0
11 1 283 0
11 -1 -283 0
-11 1 -283 0
-11 -1 283 0
12 1 296 0
12 -1 -296 0
-12 1 -296 0
-12 -1 296 0
13 1 323 0
13 -1 -323 0
-13 1 -323 0
-13 -1 323 0
14 1 326 0
14 -1 -326 0
-14 1 -326 0
-14 -1 326 0
16 15 64 0
16 -15 -64 0
-16 15 -64 0
-16 -15 64 0
17 15 165 0
17 -15 -165 0
-17 15 -165 0
-17 -15 165 0
18 15 210 0
18 -15 -210 0
-18 15 -210 0
-18 -15 210 0
19 15 222 0
19 -15 -222 0
-19 15 -222 0
-19 -15 222 0
20 15 304 0
20 -15 -304 0
-20 15 -304 0
-20 -15 304 0
21 15 307 0
21 -15 -307 0
-21 15 -307 0
-21 -15 307 0
22 15 318 0
22 -15 -318 0
-22 15 -318 0
-22 -15 318 0
23 15 323 0
23 -15 -323 0
-23 15 -323 0
-23 -15 323 0
25 24 38 0
25 -24 -38 0
-25 24 -38 0
-25 -24 38 0
26 24 52 0
26 -24 -52 0
-26 24 -52 0
-26 -24 52 0
27 24 93 0
27 -24 -93 0
-27 24 -93 0
-27 -24 93 0
28 24 121 0
28 -24 -121 0
-28 24 -121 0
-28 -24 121 0
29 24 129 0
29 -24 -129 0
-29 24 -129 0
-29 -24 129 0
30 24 201 0
30 -24 -201 0
-30 24 -201 0
-30 -24 201 0
31 24 229 0
31 -24 -229 0
-31 24 -229 0
-31 -24 229 0
32 24 234 0
32 -24 -234 0
-32 24 -234 0
-32 -24 234 0
33 24 258 0
33 -24 -258 0
-33 24 -258 0
-33 -24 258 0
34 24 288 0
34 -24 -288 0
-34 24 -288 0
-34 -24 288 0
35 24 304 0
35 -24 -304 0
-35 24 -304 0
-35 -24 304 0
36 24 326 0
36 -24 -326 0
-36 24 -326 0
-36 -24 326 0
37 24 330 0
37 -24 -330 0
-37 24 -330 0
-37 -24 330 0
39 38 52 0
39 -38 -52 0
-39 38 -52 0
-39 -38 52 0
40 38 93 0
40 -38 -93 0
-40 38 -93 0
-40 -38 93 0
41 38 109 0
41 -38 -109 0
-41 38 -109 0
-41 -38 109 0
42 38 121 0
42 -38 -121 0
-42 38 -121 0
-42 -38 121 0
43 38 172 0
43 -38 -172 0
-43 38 -172 0
-43 -38 172 0
44 38 201 0
44 -38 -201 0
-44 38 -201 0
-44 -38 201 0
45 38 210 0
45 -38 -210 0
-45 38 -210 0
-45 -38 210 0
46 38 283 0
46 -38 -283 0
-46 38 -283 0
-46 -38 283 0
47 38 288 0
47 -38 -288 0
-47 38 -288 0
-47 -38 288 0
48 38 291 0
48 -38 -291 0
-48 38 -291 0
-48 -38 291 0
49 38 304 0
49 -38 -304 0
-49 38 -304 0
-49 -38 304 0
50 38 320 0
50 -38 -320 0
-50 38 -320 0
-50 -38 320 0
51 38 323 0
51 -38 -323 0
-51 38 -323 0
-51 -38 323 0
53 52 64 0
53 -52 -64 0
-53 52 -64 0
-53 -52 64 0
54 52 74 0
54 -52 -74 0
-54 52 -74 0
-54 -52 74 0
55 52 79 0
55 -52 -79 0
-55 52 -79 0
-55 -52 79 0
56 52 109 0
56 -52 -109 0
-56 52 -109 0
-56 -52 109 0
57 52 210 0
57 -52 -210 0
-57 52 -210 0
-57 -52 210 0
58 52 222 0
58 -52 -222 0
-58 52 -222 0
-58 -52 222 0
59 52 283 0
59 -52 -283 0
-59 52 -283 0
-59 -52 283 0
60 52 288 0
60 -52 -288 0
-60 52 -288 0
-60 -52 288 0
61 52 313 0
61 -52 -313 0
-61 52 -313 0
-61 -52 313 0
62 52 318 0
62 -52 -318 0
-62 52 -318 0
-62 -52 318 0
63 52 323 0
63 -52 -323 0
-63 52 -323 0
-63 -52 323 0
65 64 148 0
65 -64 -148 0
-65 64 -148 0
-65 -64 148 0
66 64 153 0
66 -64 -153 0
-66 64 -153 0
-66 -64 153 0
67 64 210 0
67 -64 -210 0
-67 64 -210 0
-67 -64 210 0
68 64 229 0
68 -64 -229 0
-68 64 -229 0
-68 -64 229 0
69 64 254 0
69 -64 -254 0
-69 64 -254 0
-69 -64 254 0
70 64 310 0
70 -64 -310 0
-70 64 -310 0
-70 -64 310 0
71 64 328 0
71 -64 -328 0
-71 64 -328 0
-71 -64 328 0
72 64 330 0
72 -64 -330 0
-72 64 -330 0
-72 -64 330 0
73 64 331 0
73 -64 -331 0
-73 64 -331 0
-73 -64 331 0
75 74 172 0
75 -74 -172 0
-75 74 -172 0
-75 -74 172 0
76 74 254 0
76 -74 -254 0
-76 74 -254 0
-76 -74 254 0
77 74 291 0
77 -74 -291 0
-77 74 -291 0
-77 -74 291 0
78 74 315 0
78 -74 -315 0
-78 74 -315 0
-78 -74 315 0
80 79 109 0
80 -79 -109 0
-80 79 -109 0
-80 -79 109 0
81 79 172 0
81 -79 -172 0
-81 79 -172 0
-81 -79 172 0
82 79 210 0
82 -79 -210 0
-82 79 -210 0
-82 -79 210 0
83 79 222 0
83 -79 -222 0
-83 79 -222 0
-83 -79 222 0
84 79 229 0
84 -79 -229 0
-84 79 -229 0
-84 -79 229 0
85 79 234 0
85 -79 -234 0
-85 79 -234 0
-85 -79 234 0
86 79 241 0
86 -79 -241 0
-86 79 -241 0
-86 -79 241 0
87 79 262 0
87 -79 -262 0
-87 79 -262 0
-87 -79 262 0
88 79 315 0
88 -79 -315 0
-88 79 -315 0
-88 -79 315 0
89 79 320 0
89 -79 -320 0
-89 79 -320 0
-89 -79 320 0
90 79 323 0
90 -79 -323 0
-90 79 -323 0
-90 -79 323 0
91 79 326 0
91 -79 -326 0
-91 79 -326 0
-91 -79 326 0
92 79 330 0
92 -79 -330 0
-92 79 -330 0
-92 -79 330 0
94 93 109 0
94 -93 -109 0
-94 93 -109 0
-94 -93 109 0
95 93 121 0
95 -93 -121 0
-95 93 -121 0
-95 -93 121 0
96 93 129 0
96 -93 -129 0
-96 93 -129 0
-96 -93 129 0
97 93 140 0
97 -93 -140 0
-97 93 -140 0
-97 -93 140 0
98 93 165 0
98 -93 -165 0
-98 93 -165 0
-98 -93 165 0
99 93 201 0
99 -93 -201 0
-99 93 -201 0
-99 -93 201 0
100 93 210 0
100 -93 -210 0
-100 93 -210 0
-100 -93 210 0
101 93 229 0
101 -93 -229 0
-101 93 -229 0
-101 -93 229 0
102 93 246 0
102 -93 -246 0
-102 93 -246 0
-102 -93 246 0
103 93 258 0
103 -93 -258 0
-103 93 -258 0
-103 -93 258 0
104 93 272 0
104 -93 -272 0
-104 93 -272 0
-104 -93 272 0
105 93 298 0
105 -93 -298 0
-105 93 -298 0
-105 -93 298 0
106 93 301 0
106 -93 -301 0
-106 93 -301 0
-106 -93 301 0
107 93 326 0
107 -93 -326 0
-107 93 -326 0
-107 -93 326 0
108 93 328 0
108 -93 -328 0
-108 93 -328 0
-108 -93 328 0
110 109 121 0
110 -109 -121 0
-110 109 -121 0
-110 -109 121 0
111 109 180 0
111 -109 -180 0
-111 109 -180 0
-111 -109 180 0
112 109 234 0
112 -109 -234 0
-112 109 -234 0
-112 -109 234 0
113 109 262 0
113 -109 -262 0
-113 109 -262 0
-113 -109 262 0
114 109 272 0
114 -109 -272 0
-114 109 -272 0
-114 -109 272 0
115 109 301 0
115 -109 -301 0
-115 109 -301 0
-115 -109 301 0
116 109 304 0
116 -109 -304 0
-116 109 -304 0
-116 -109 304 0
117 109 313 0
117 -109 -313 0
-117 109 -313 0
-117 -109 313 0
118 109 318 0
118 -109 -318 0
-118 109 -318 0
-118 -109 318 0
119 109 326 0
119 -109 -326 0
-119 109 -326 0
-119 -109 326 0
120 109 328 0
120 -109 -328 0
-120 109 -328 0
-120 -109 328 0
122 121 129 0
122 -121 -129 0
-122 121 -129 0
-122 -121 129 0
123 121 172 0
123 -121 -172 0
-123 121 -172 0
-123 -121 172 0
124 121 180 0
124 -121 -180 0
-124 121 -180 0
-124 -121 180 0
125 121 210 0
125 -121 -210 0
-125 121 -210 0
-125 -121 210 0
126 121 229 0
126 -121 -229 0
-126 121 -229 0
-126 -121 229 0
127 121 296 0
127 -121 -296 0
-127 121 -296 0
-127 -121 296 0
128 121 307 0
128 -121 -307 0
-128 121 -307 0
-128 -121 307 0
130 129 140 0
130 -129 -140 0
-130 129 -140 0
-130 -129 140 0
131 129 201 0
131 -129 -201 0
-131 129 -201 0
-131 -129 201 0
132 129 222 0
132 -129 -222 0
-132 129 -222 0
-132 -129 222 0
133 129 258 0
133 -129 -258 0
-133 129 -258 0
-133 -129 258 0
134 129 283 0
134 -129 -283 0
-134 129 -283 0
-134 -129 283 0
135 129 291 0
135 -129 -291 0
-135 129 -291 0
-135 -129 291 0
136 129 313 0
136 -129 -313 0
-136 129 -313 0
-136 -129 313 0
137 129 315 0
137 -129 -315 0
-137 129 -315 0
-137 -129 315 0
138 129 318 0
138 -129 -318 0
-138 129 -318 0
-138 -129 318 0
139 129 330 0
139 -129 -330 0
-139 129 -330 0
-139 -129 330 0
141 140 229 0
141 -140 -229 0
-141 140 -229 0
-141 -140 229 0
142 140 254 0
142 -140 -254 0
-142 140 -254 0
-142 -140 254 0
143 140 262 0
143 -140 -262 0
-143 140 -262 0
-143 -140 262 0
144 140 301 0
144 -140 -301 0
-144 140 -301 0
-144 -140 301 0
145 140 315 0
145 -140 -315 0
-145 140 -315 0
-145 -140 315 0
146 140 326 0
146 -140 -326 0
-146 140 -326 0
-146 -140 326 0
147 140 328 0
147 -140 -328 0
-147 140 -328 0
-147 -140 328 0
149 148 254 0
149 -148 -254 0
-149 148 -254 0
-149 -148 254 0
150 148 298 0
150 -148 -298 0
-150 148 -298 0
-150 -148 298 0
151 148 301 0
151 -148 -301 0
-151 148 -301 0
-151 -148 301 0
152 148 304 0
152 -148 -304 0
-152 148 -304 0
-152 -148 304 0
154 153 180 0
154 -153 -180 0
-154 153 -180 0
-154 -153 180 0
155 153 190 0
155 -153 -190 0
-155 153 -190 0
-155 -153 190 0
156 153 201 0
156 -153 -201 0
-156 153 -201 0
-156 -153 201 0
157 153 210 0
157 -153 -210 0
-157 153 -210 0
-157 -153 210 0
158 153 229 0
158 -153 -229 0
-158 153 -229 0
-158 -153 229 0
159 153 246 0
159 -153 -246 0
-159 153 -246 0
-159 -153 246 0
160 153 254 0
160 -153 -254 0
-160 153 -254 0
-160 -153 254 0
161 153 283 0
161 -153 -283 0
-161 153 -283 0
-161 -153 283 0
162 153 288 0
162 -153 -288 0
-162 153 -288 0
-162 -153 288 0
163 153 307 0
163 -153 -307 0
-163 153 -307 0
-163 -153 307 0
164 153 328 0
164 -153 -328 0
-164 153 -328 0
-164 -153 328 0
166 165 229 0
166 -165 -229 0
-166 165 -229 0
-166 -165 229 0
167 165 283 0
167 -165 -283 0
-167 165 -283 0
-167 -165 283 0
168 165 296 0
168 -165 -296 0
-168 165 -296 0
-168 -165 296 0
169 165 323 0
169 -165 -323 0
-169 165 -323 0
-169 -165 323 0
170 165 328 0
170 -165 -328 0
-170 165 -328 0
-170 -165 328 0
171 165 330 0
171 -165 -330 0
-171 165 -330 0
-171 -165 330 0
173 172 180 0
173 -172 -180 0
-173 172 -180 0
-173 -172 180 0
174 172 217 0
174 -172 -217 0
-174 172 -217 0
-174 -172 217 0
175 172 222 0
175 -172 -222 0
-175 172 -222 0
-175 -172 222 0
176 172 254 0
176 -172 -254 0
-176 172 -254 0
-176 -172 254 0
177 172 301 0
177 -172 -301 0
-177 172 -301 0
-177 -172 301 0
178 172 313 0
178 -172 -313 0
-178 172 -313 0
-178 -172 313 0
179 172 328 0
179 -172 -328 0
-179 172 -328 0
-179 -172 328 0
181 180 217 0
181 -180 -217 0
-181 180 -217 0
-181 -180 217 0
182 180 246 0
182 -180 -246 0
-182 180 -246 0
-182 -180 246 0
183 180 291 0
183 -180 -291 0
-183 180 -291 0
-183 -180 291 0
184 180 304 0
184 -180 -304 0
-184 180 -304 0
-184 -180 304 0
185 180 307 0
185 -180 -307 0
-185 180 -307 0
-185 -180 307 0
186 180 315 0
186 -180 -315 0
-186 180 -315 0
-186 -180 315 0
187 180 318 0
187 -180 -318 0
-187 180 -318 0
-187 -180 318 0
188 180 328 0
188 -180 -328 0
-188 180 -328 0
-188 -180 328 0
189 180 331 0
189 -180 -331 0
-189 180 -331 0
-189 -180 331 0
191 190 210 0
191 -190 -210 0
-191 190 -210 0
-191 -190 210 0
192 190 217 0
192 -190 -217 0
-192 190 -217 0
-192 -190 217 0
193 190 246 0
193 -190 -246 0
-193 190 -246 0
-193 -190 246 0
194 190 258 0
194 -190 -258 0
-194 190 -258 0
-194 -190 258 0
195 190 283 0
195 -190 -283 0
-195 190 -283 0
-195 -190 283 0
196 190 291 0
196 -190 -291 0
-196 190 -291 0
-196 -190 291 0
197 190 298 0
197 -190 -298 0
-197 190 -298 0
-197 -190 298 0
198 190 301 0
198 -190 -301 0
-198 190 -301 0
-198 -190 301 0
199 190 323 0
199 -190 -323 0
-199 190 -323 0
-199 -190 323 0
200 190 330 0
200 -190 -330 0
-200 190 -330 0
-200 -190 330 0
202 201 217 0
202 -201 -217 0
-202 201 -217 0
-202 -201 217 0
203 201 246 0
203 -201 -246 0
-203 201 -246 0
-203 -201 246 0
204 201 265 0
204 -201 -265 0
-204 201 -265 0
-204 -201 265 0
205 201 272 0
205 -201 -272 0
-205 201 -272 0
-205 -201 272 0
206 201 298 0
206 -201 -298 0
-206 201 -298 0
-206 -201 298 0
207 201 318 0
207 -201 -318 0
-207 201 -318 0
-207 -201 318 0
208 201 326 0
208 -201 -326 0
-208 201 -326 0
-208 -201 326 0
209 201 328 0
209 -201 -328 0
-209 201 -328 0
-209 -201 328 0
211 210 217 0
211 -210 -217 0
-211 210 -217 0
-211 -210 217 0
212 210 262 0
212 -210 -262 0
-212 210 -262 0
-212 -210 262 0
213 210 318 0
213 -210 -318 0
-213 210 -318 0
-213 -210 318 0
214 210 323 0
214 -210 -323 0
-214 210 -323 0
-214 -210 323 0
215 210 326 0
215 -210 -326 0
-215 210 -326 0
-215 -210 326 0
216 210 328 0
216 -210 -328 0
-216 210 -328 0
-216 -210 328 0
218 217 222 0
218 -217 -222 0
-218 217 -222 0
-218 -217 222 0
219 217 246 0
219 -217 -246 0
-219 217 -246 0
-219 -217 246 0
220 217 296 0
220 -217 -296 0
-220 217 -296 0
-220 -217 296 0
221 217 301 0
221 -217 -301 0
-221 217 -301 0
-221 -217 301 0
223 222 265 0
223 -222 -265 0
-223 222 -265 0
-223 -222 265 0
224 222 272 0
224 -222 -272 0
-224 222 -272 0
-224 -222 272 0
225 222 283 0
225 -222 -283 0
-225 222 -283 0
-225 -222 283 0
226 222 288 0
226 -222 -288 0
-226 222 -288 0
-226 -222 288 0
227 222 291 0
227 -222 -291 0
-227 222 -291 0
-227 -222 291 0
228 222 296 0
228 -222 -296 0
-228 222 -296 0
-228 -222 296 0
230 229 296 0
230 -229 -296 0
-230 229 -296 0
-230 -229 296 0
231 229 320 0
231 -229 -320 0
-231 229 -320 0
-231 -229 320 0
232 229 323 0
232 -229 -323 0
-232 229 -323 0
-232 -229 323 0
233 229 330 0
233 -229 -330 0
-233 229 -330 0
-233 -229 330 0
235 234 262 0
235 -234 -262 0
-235 234 -262 0
-235 -234 262 0
236 234 283 0
236 -234 -283 0
-236 234 -283 0
-236 -234 283 0
237 234 288 0
237 -234 -288 0
-237 234 -288 0
-237 -234 288 0
238 234 304 0
238 -234 -304 0
-238 234 -304 0
-238 -234 304 0
239 234 307 0
239 -234 -307 0
-239 234 -307 0
-239 -234 307 0
240 234 330 0
240 -234 -330 0
-240 234 -330 0
-240 -234 330 0
242 241 272 0
242 -241 -272 0
-242 241 -272 0
-242 -241 272 0
243 241 291 0
243 -241 -291 0
-243 241 -291 0
-243 -241 291 0
244 241 328 0
244 -241 -328 0
-244 241 -328 0
-244 -241 328 0
245 241 330 0
245 -241 -330 0
-245 241 -330 0
-245 -241 330 0
247 246 254 0
247 -246 -254 0
-247 246 -254 0
-247 -246 254 0
248 246 283 0
248 -246 -283 0
-248 246 -283 0
-248 -246 283 0
249 246 298 0
249 -246 -298 0
-249 246 -298 0
-249 -246 298 0
250 246 304 0
250 -246 -304 0
-250 246 -304 0
-250 -246 304 0
251 246 310 0
251 -246 -310 0
-251 246 -310 0
-251 -246 310 0
252 246 318 0
252 -246 -318 0
-252 246 -318 0
-252 -246 318 0
253 246 323 0
253 -246 -323 0
-253 246 -323 0
-253 -246 323 0
255 254 272 0
255 -254 -272 0
-255 254 -272 0
-255 -254 272 0
256 254 296 0
256 -254 -296 0
-256 254 -296 0
-256 -254 296 0
257 254 323 0
257 -254 -323 0
-257 254 -323 0
-257 -254 323 0
259 258 272 0
259 -258 -272 0
-259 258 -272 0
-259 -258 272 0
260 258 296 0
260 -258 -296 0
-260 258 -296 0
-260 -258 296 0
261 258 320 0
261 -258 -320 0
-261 258 -320 0
-261 -258 320 0
263 262 310 0
263 -262 -310 0
-263 262 -310 0
-263 -262 310 0
264 262 313 0
264 -262 -313 0
-264 262 -313 0
-264 -262 313 0
266 265 272 0
266 -265 -272 0
-266 265 -272 0
-266 -265 272 0
267 265 291 0
267 -265 -291 0
-267 265 -291 0
-267 -265 291 0
268 265 296 0
268 -265 -296 0
-268 265 -296 0
-268 -265 296 0
269 265 301 0
269 -265 -301 0
-269 265 -301 0
-269 -265 301 0
270 265 315 0
270 -265 -315 0
-270 265 -315 0
-270 -265 315 0
271 265 330 0
271 -265 -330 0
-271 265 -330 0
-271 -265 330 0
273 272 283 0
273 -272 -283 0
-273 272 -283 0
-273 -272 283 0
274 272 288 0
274 -272 -288 0
-274 272 -288 0
-274 -272 288 0
275 272 298 0
275 -272 -298 0
-275 272 -298 0
-275 -272 298 0
276 272 301 0
276 -272 -301 0
-276 272 -301 0
-276 -272 301 0
277 272 310 0
277 -272 -310 0
-277 272 -310 0
-277 -272 310 0
278 272 315 0
278 -272 -315 0
-278 272 -315 0
-278 -272 315 0
279 272 318 0
279 -272 -318 0
-279 272 -318 0
-279 -272 318 0
280 272 323 0
280 -272 -323 0
-280 272 -323 0
-280 -272 323 0
281 272 326 0
281 -272 -326 0
-281 272 -326 0
-281 -272 326 0
282 272 328 0
282 -272 -328 0
-282 272 -328 0
-282 -272 328 0
284 283 291 0
284 -283 -291 0
-284 283 -291 0
-284 -283 291 0
285 283 296 0
285 -283 -296 0
-285 283 -296 0
-285 -283 296 0
286 283 304 0
286 -283 -304 0
-286 283 -304 0
-286 -283 304 0
287 283 318 0
287 -283 -318 0
-287 283 -318 0
-287 -283 318 0
289 288 296 0
289 -288 -296 0
-289 288 -296 0
-289 -288 296 0
290 288 320 0
290 -288 -320 0
-290 288 -320 0
-290 -288 320 0
292 291 304 0
292 -291 -304 0
-292 291 -304 0
-292 -291 304 0
293 291 307 0
293 -291 -307 0
-293 291 -307 0
-293 -291 307 0
294 291 315 0
294 -291 -315 0
-294 291 -315 0
-294 -291 315 0
295 291 318 0
295 -291 -318 0
-295 291 -318 0
-295 -291 318 0
297 296 310 0
297 -296 -310 0
-297 296 -310 0
-297 -296 310 0
299 298 310 0
299 -298 -310 0
-299 298 -310 0
-299 -298 310 0
300 298 318 0
300 -298 -318 0
-300 298 -318 0
-300 -298 318 0
302 301 318 0
302 -301 -318 0
-302 301 -318 0
-302 -301 318 0
303 301 320 0
303 -301 -320 0
-303 301 -320 0
-303 -301 320 0
305 304 323 0
305 -304 -323 0
-305 304 -323 0
-305 -304 323 0
306 304 326 0
306 -304 -326 0
-306 304 -326 0
-306 -304 326 0
308 307 318 0
308 -307 -318 0
-308 307 -318 0
-308 -307 318 0
309 307 326 0
309 -307 -326 0
-309 307 -326 0
-309 -307 326 0
311 310 313 0
311 -310 -313 0
-311 310 -313 0
-311 -310 313 0
312 310 320 0
312 -310 -320 0
-312 310 -320 0
-312 -310 320 0
314 313 320 0
314 -313 -320 0
-314 313 -320 0
-314 -313 320 0
316 315 326 0
316 -315 -326 0
-316 315 -326 0
-316 -315 326 0
317 315 330 0
317 -315 -330 0
-317 315 -330 0
-317 -315 330 0
319 318 320 0
319 -318 -320 0
-319 318 -320 0
-319 -318 320 0
321 320 323 0
321 -320 -323 0
-321 320 -323 0
-321 -320 323 0
322 320 328 0
322 -320 -328 0
-322 320 -328 0
-322 -320 328 0
324 323 328 0
324 -323 -328 0
-324 323 -328 0
-324 -323 328 0
325 323 330 0
325 -323 -330 0
-325 323 -330 0
-325 -323 330 0
327 326 330 0
327 -326 -330 0
-327 326 -330 0
-327 -326 330 0
329 328 330 0
329 -328 -330 0
-329 328 -330 0
-329 -328 330 0
